p cnf 23 28
-1 16 -10 0 
-2 7 17 -6 0 
-1 18 0 
-3 18 0 
-4 16 -10 0 
-1 17 -6 0 
-2 7 18 0 
-5 11 17 -6 0 
-5 11 16 -10 0 
-6 19 0 
-7 2 -1 20 0 
-8 21 0 
-8 22 0 
-9 22 0 
-9 21 0 
-3 21 0 
-3 23 0 
-10 21 0 
-2 7 21 0 
-10 22 0 
-3 22 0 
-2 7 22 0 
-11 5 16 -10 0 
-3 -12 17 -6 0 
-2 7 -13 18 0 
-11 5 -14 16 -10 0 
-15 -1 17 -6 0 
-6 18 0 
